NAME: Leo1.sop
UB: 2125
TYPE: SOP
COMMENT: Made by Leo
DIMENSION: 9
EDGE_WEIGHT_TYPE: EXPLICIT
EDGE_WEIGHT_FORMAT: FULL_MATRIX 
EDGE_WEIGHT_SECTION
4
    0    1    0    0   
    0   0      2    0
    0   0      0    3
    4   0       0   0

EOF

